SYSTEM = MoTe2
ISTART =  1
ICHARG =  2
#NSW    =  300
#IBRION =  2
#ISIF   =  3
EDIFF  =  1E-05
EDIFFG =  -0.01
PREC   =  Accurate
ENCUT  =  500
#ISPIN  =  2
ISMEAR =  0
SIGMA = 0.05
GGA = PE
LWAVE = F
LCHARG = F
NPAR=4
#LORBIT = 11
LREAL = Auto
#NBANDS = 28
#ISYM = 0
#IALGO=48 
#NELMDL = -5
#ICORELEVEL = 1
###########################
LHFCALC = .TRUE.
HFSCREEN = 0.2
TIME = 0.4
AEXX = 0.25
ALGO = Damped
###########################
#MAGMOM = 0 0 0  0 0 0  
#LSORBIT = T
#SAXIS = 0 0 1
