Automatically generated mesh
       41
Reciprocal lattice
    0.00000000000000    0.00000000000000    0.00000000000000             1
    0.50000000000000    0.00000000000000    0.00000000000000             1
    0.00000000000000    0.50000000000000    0.00000000000000             1
    0.50000000000000    0.50000000000000    0.00000000000000             1
    0.00000000000000    0.00000000000000    0.50000000000000             1
    0.50000000000000    0.00000000000000    0.50000000000000             1
    0.00000000000000    0.50000000000000    0.50000000000000             1
    0.50000000000000    0.50000000000000    0.50000000000000             1
    0.00000000  0.30000000  0.50000000       0.0
    0.00000000  0.32000000  0.50000000       0.0
    0.00000000  0.34000000  0.50000000       0.0
    0.00000000  0.36000000  0.50000000       0.0
    0.00000000  0.38000000  0.50000000       0.0
    0.00000000  0.40000000  0.50000000       0.0
    0.00000000  0.42000000  0.50000000       0.0
    0.00000000  0.44000000  0.50000000       0.0
    0.00000000  0.46000000  0.50000000       0.0
    0.00000000  0.48000000  0.50000000       0.0
    0.00000000  0.50000000  0.50000000       0.0
    0.00000000  0.50000000  0.50000000       0.0
    0.05000000  0.50000000  0.45000000       0.0
    0.10000000  0.50000000  0.40000000       0.0
    0.15000000  0.50000000  0.35000000       0.0
    0.20000000  0.50000000  0.30000000       0.0
    0.25000000  0.50000000  0.25000000       0.0
    0.30000000  0.50000000  0.20000000       0.0
    0.35000000  0.50000000  0.15000000       0.0
    0.40000000  0.50000000  0.10000000       0.0
    0.45000000  0.50000000  0.05000000       0.0
    0.50000000  0.50000000  0.00000000       0.0
    0.00000000  0.50000000  0.00000000       0.0
    0.00000000  0.48000000  0.00000000       0.0
    0.00000000  0.46000000  0.00000000       0.0
    0.00000000  0.44000000  0.00000000       0.0
    0.00000000  0.42000000  0.00000000       0.0
    0.00000000  0.40000000  0.00000000       0.0
    0.00000000  0.38000000  0.00000000       0.0
    0.00000000  0.36000000  0.00000000       0.0
    0.00000000  0.34000000  0.00000000       0.0
    0.00000000  0.32000000  0.00000000       0.0
    0.00000000  0.30000000  0.00000000       0.0

