Monoclinic
13   ! 20 grids
Line-mode
reciprocal
0.0000000000  0.5000000000  -0.0000000000 !B 
0.0000000000  0.0000000000   0.0000000000 !G 
0.0000000000  0.0000000000   0.0000000000 !G 
0.0000000000  0.5000000000  -0.5000000000 !A 
