Cs4 Nb12 S4 Br28
1.0
       19.5721626282         0.0000000000         0.0000000000
        0.0000000000         7.1606040001         0.0000000000
        0.0000000000         1.3883762463        10.2837130993
   Cs   Nb    S   Br
    4   12    4   28
Direct
     0.405201994         0.768721975         0.884599986
     0.094798000         0.268722009         0.884599986
     0.905201994         0.731277992         0.115400003
     0.594798006         0.231277992         0.115400003
     0.827684976         0.134716010         0.578746969
     0.672279990         0.037415999         0.579226972
     0.172280002         0.462584004         0.420773005
     0.672315024         0.634715910         0.578746969
     0.330125981         0.213102985         0.174588996
     0.669873994         0.786896964         0.825411085
     0.327685001         0.365283993         0.421253008
     0.169873994         0.713103052         0.174588996
     0.172314999         0.865283993         0.421253008
     0.830125957         0.286896998         0.825411085
     0.827719962         0.537415999         0.579226972
     0.327719986         0.962584037         0.420773005
     0.762314975         0.817484993         0.673259992
     0.262314999         0.682515039         0.326740009
     0.737685025         0.317484993         0.673259992
     0.237685001         0.182514989         0.326740009
     0.750083029         0.010930993         0.956425054
     0.413964011         0.137647001         0.555233011
     0.749916971         0.510930960         0.956425054
     0.079432000         0.949377005         0.240775008
     0.598571011         0.740869963         0.057259005
     0.420139015         0.949791041         0.238993009
     0.901429038         0.240869996         0.057259005
     0.750170005         0.125307998         0.369143996
     0.250083005         0.489069028         0.043575002
     0.401428989         0.259129975         0.942740966
     0.086035995         0.637646952         0.555233011
     0.579432000         0.550623018         0.759225038
     0.249916995         0.989068994         0.043575002
     0.920567951         0.050622984         0.759225038
     0.586036038         0.862353076         0.444767013
     0.913964011         0.362352976         0.444767013
     0.098571005         0.759129942         0.942740966
     0.249829995         0.874692034         0.630856004
     0.920138967         0.550208986         0.761007014
     0.101003994         0.142548995         0.533512018
     0.579860985         0.050209002         0.761007014
     0.749829995         0.625307998         0.369143996
     0.420568000         0.449376972         0.240775008
     0.898995951         0.857451016         0.466488006
     0.601004000         0.357450982         0.466488006
     0.250169981         0.374692000         0.630856004
     0.398996000         0.642549012         0.533512018
     0.079861003         0.449791008         0.238993009
