SYSTEM = Ga2BiAs
ISART = 0
ICHARG = 2
PREC = Accurate                   
ENCUT = 500.0
EDIFF = 1E-04
EDIFFG = -0.02 
#NELM = 200
#NSW = 300
#IBRION = 2           
#ISIF = 3
#ISPIN = 2                 
#ISMEAR = 0
#MAGMOM = 15*0
#NUPDOWN = 0
#SIGMA = 0.05
#GGA = PE
LWAVE = T
LCHARG = T
NPAR = 4
#IALGO=48
LREAL = Auto
#LSORBIT = T
#SAXIS = 0 0 1
#LORBIT = 11
#NBANDS = 32
#NEDOS = 2000
