SYSTEM = Ga2BiAs
ISART = 1
ICHARG = 2
PREC = Accurate                   
ENCUT = 500.0
EDIFF = 1E-05
EDIFFG = -0.01 
#NELM = 200
#NSW = 300
#IBRION = 2           
#ISIF = 3
#ISPIN = 2                 
ISMEAR = 0
#MAGMOM = 15*0
#NUPDOWN = 0
SIGMA = 0.05
#GGA = PE
LWAVE = .False.
LCHARG = .False.
NPAR = 4
#IALGO=48
LREAL = Auto
#LSORBIT = T
#SAXIS = 0 0 1
LORBIT = 11
#NBANDS = 32
#NEDOS = 2000
