Monoclinic
70   ! 20 grids
Line-mode
reciprocal
0.000000  0.000000  0.000000   ! Gamma
0.500000  0.000000  0.000000   ! Z

0.500000  0.000000  0.000000   ! Z
0.500000  0.500000  0.000000   ! D

0.500000  0.500000  0.000000   ! D
0.000000  0.500000  0.000000   ! B

0.000000  0.500000  0.000000   ! B
0.000000  0.000000  0.000000   ! G

0.000000  0.000000  0.000000   ! G
0.000000  0.500000 -0.500000   ! A

0.000000  0.500000 -0.500000   ! A
0.500000  0.500000 -0.500000   ! E

0.500000  0.500000 -0.500000   ! E
0.500000  0.000000  0.000000   ! Z

0.500000  0.000000  0.000000   ! Z
0.000000  0.000000  0.000000   ! G
