Cs4 Nb12 S4 Br28                        
   1.00000000000000     
    19.5721626282000010    0.0000000000000000    0.0000000000000000
     0.0000000000000000    7.1606040001000002    0.0000000000000000
     0.0000000000000000    1.3883762463000000   10.2837130992999999
   Cs   Nb   S    Br
     4    12     4    28
Direct
  0.4052019940000022  0.7687219749999983  0.8845999859999978
  0.0947979999999973  0.2687220090000011  0.8845999859999978
  0.9052019940000022  0.7312779920000025  0.1154000029999978
  0.5947980059999978  0.2312779920000025  0.1154000029999978
  0.8276849760000005  0.1347160099999982  0.5787469690000009
  0.6722799899999998  0.0374159989999967  0.5792269720000007
  0.1722800020000008  0.4625840040000000  0.4207730050000009
  0.6723150239999995  0.6347159099999971  0.5787469690000009
  0.3301259810000019  0.2131029849999990  0.1745889959999971
  0.6698739939999996  0.7868969640000003  0.8254110849999989
  0.3276850009999990  0.3652839929999985  0.4212530080000008
  0.1698739939999996  0.7131030520000010  0.1745889959999971
  0.1723149990000010  0.8652839929999985  0.4212530080000008
  0.8301259569999999  0.2868969980000031  0.8254110849999989
  0.8277199620000033  0.5374159989999967  0.5792269720000007
  0.3277199859999982  0.9625840369999992  0.4207730050000009
  0.7623149750000024  0.8174849930000008  0.6732599919999984
  0.2623149989999973  0.6825150390000019  0.3267400089999981
  0.7376850249999976  0.3174849930000008  0.6732599919999984
  0.2376850010000027  0.1825149889999977  0.3267400089999981
  0.7500830290000025  0.0109309930000023  0.9564250540000003
  0.4139640109999974  0.1376470009999977  0.5552330109999986
  0.7499169709999975  0.5109309600000032  0.9564250540000003
  0.0794319999999971  0.9493770050000023  0.2407750080000000
  0.5985710109999971  0.7408699630000015  0.0572590049999988
  0.4201390149999966  0.9497910409999974  0.2389930089999979
  0.9014290380000034  0.2408699960000007  0.0572590049999988
  0.7501700050000011  0.1253079979999967  0.3691439959999983
  0.2500830050000005  0.4890690280000030  0.0435750019999972
  0.4014289890000029  0.2591299750000005  0.9427409660000023
  0.0860359950000031  0.6376469519999972  0.5552330109999986
  0.5794319999999971  0.5506230180000031  0.7592250379999967
  0.2499169949999995  0.9890689940000001  0.0435750019999972
  0.9205679510000024  0.0506229840000003  0.7592250379999967
  0.5860360380000031  0.8623530759999980  0.4447670130000034
  0.9139640109999974  0.3623529759999968  0.4447670130000034
  0.0985710049999966  0.7591299420000013  0.9427409660000023
  0.2498299949999989  0.8746920339999988  0.6308560040000017
  0.9201389669999998  0.5502089860000012  0.7610070140000005
  0.1010039940000027  0.1425489949999985  0.5335120180000033
  0.5798609850000034  0.0502090020000026  0.7610070140000005
  0.7498299949999989  0.6253079979999967  0.3691439959999983
  0.4205680000000029  0.4493769720000031  0.2407750080000000
  0.8989959510000034  0.8574510159999988  0.4664880059999987
  0.6010040000000032  0.3574509820000031  0.4664880059999987
  0.2501699809999991  0.3746920000000031  0.6308560040000017
  0.3989959999999968  0.6425490120000035  0.5335120180000033
  0.0798610029999978  0.4497910079999983  0.2389930089999979
 
  0.00000000E+00  0.00000000E+00  0.00000000E+00
  0.00000000E+00  0.00000000E+00  0.00000000E+00
  0.00000000E+00  0.00000000E+00  0.00000000E+00
  0.00000000E+00  0.00000000E+00  0.00000000E+00
  0.00000000E+00  0.00000000E+00  0.00000000E+00
  0.00000000E+00  0.00000000E+00  0.00000000E+00
  0.00000000E+00  0.00000000E+00  0.00000000E+00
  0.00000000E+00  0.00000000E+00  0.00000000E+00
  0.00000000E+00  0.00000000E+00  0.00000000E+00
  0.00000000E+00  0.00000000E+00  0.00000000E+00
  0.00000000E+00  0.00000000E+00  0.00000000E+00
  0.00000000E+00  0.00000000E+00  0.00000000E+00
  0.00000000E+00  0.00000000E+00  0.00000000E+00
  0.00000000E+00  0.00000000E+00  0.00000000E+00
  0.00000000E+00  0.00000000E+00  0.00000000E+00
  0.00000000E+00  0.00000000E+00  0.00000000E+00
  0.00000000E+00  0.00000000E+00  0.00000000E+00
  0.00000000E+00  0.00000000E+00  0.00000000E+00
  0.00000000E+00  0.00000000E+00  0.00000000E+00
  0.00000000E+00  0.00000000E+00  0.00000000E+00
  0.00000000E+00  0.00000000E+00  0.00000000E+00
  0.00000000E+00  0.00000000E+00  0.00000000E+00
  0.00000000E+00  0.00000000E+00  0.00000000E+00
  0.00000000E+00  0.00000000E+00  0.00000000E+00
  0.00000000E+00  0.00000000E+00  0.00000000E+00
  0.00000000E+00  0.00000000E+00  0.00000000E+00
  0.00000000E+00  0.00000000E+00  0.00000000E+00
  0.00000000E+00  0.00000000E+00  0.00000000E+00
  0.00000000E+00  0.00000000E+00  0.00000000E+00
  0.00000000E+00  0.00000000E+00  0.00000000E+00
  0.00000000E+00  0.00000000E+00  0.00000000E+00
  0.00000000E+00  0.00000000E+00  0.00000000E+00
  0.00000000E+00  0.00000000E+00  0.00000000E+00
  0.00000000E+00  0.00000000E+00  0.00000000E+00
  0.00000000E+00  0.00000000E+00  0.00000000E+00
  0.00000000E+00  0.00000000E+00  0.00000000E+00
  0.00000000E+00  0.00000000E+00  0.00000000E+00
  0.00000000E+00  0.00000000E+00  0.00000000E+00
  0.00000000E+00  0.00000000E+00  0.00000000E+00
  0.00000000E+00  0.00000000E+00  0.00000000E+00
  0.00000000E+00  0.00000000E+00  0.00000000E+00
  0.00000000E+00  0.00000000E+00  0.00000000E+00
  0.00000000E+00  0.00000000E+00  0.00000000E+00
  0.00000000E+00  0.00000000E+00  0.00000000E+00
  0.00000000E+00  0.00000000E+00  0.00000000E+00
  0.00000000E+00  0.00000000E+00  0.00000000E+00
  0.00000000E+00  0.00000000E+00  0.00000000E+00
  0.00000000E+00  0.00000000E+00  0.00000000E+00
