Cs4 Nb12 S4 Br28
1.0
       19.5721626282         0.0000000000         0.0000000000
        0.0000000000         7.1606040001         0.0000000000
        0.0000000000         1.3883762463        10.2837130993
   Cs   Nb    S   Br
    4   12    4   28
Direct
     0.405202001         0.768721998         0.884599984
     0.094797999         0.268721998         0.884599984
     0.905201972         0.731278002         0.115400001
     0.594798028         0.231277987         0.115400001
     0.827684999         0.134716004         0.578746974
     0.672280014         0.037416000         0.579226971
     0.172279999         0.462584019         0.420773000
     0.672315001         0.634715915         0.578746974
     0.330125988         0.213102981         0.174588993
     0.669874012         0.786896944         0.825411081
     0.327684999         0.365283996         0.421252996
     0.169873998         0.713103056         0.174588993
     0.172315001         0.865283966         0.421252996
     0.830125928         0.286897004         0.825411081
     0.827719986         0.537415981         0.579226971
     0.327719986         0.962584019         0.420773000
     0.762314975         0.817484975         0.673259974
     0.262315005         0.682515025         0.326739997
     0.737685025         0.317485005         0.673259974
     0.237684995         0.182514995         0.326739997
     0.750083029         0.010930993         0.956425071
     0.413964003         0.137647003         0.555233002
     0.749916971         0.510930955         0.956425071
     0.079432003         0.949377000         0.240775004
     0.598571002         0.740869939         0.057259005
     0.420139015         0.949791014         0.238993004
     0.901429057         0.240869999         0.057259005
     0.750169992         0.125307992         0.369143993
     0.250082999         0.489069015         0.043575004
     0.401428998         0.259129971         0.942740977
     0.086035997         0.637646973         0.555233002
     0.579432011         0.550623000         0.759225011
     0.249917001         0.989068985         0.043575004
     0.920567930         0.050622985         0.759225011
     0.586036026         0.862353086         0.444766998
     0.913964033         0.362352967         0.444766998
     0.098571002         0.759129941         0.942740977
     0.249829993         0.874692023         0.630855978
     0.920138955         0.550208986         0.761007011
     0.101003997         0.142548993         0.533511996
     0.579860985         0.050209001         0.761007011
     0.749830008         0.625307977         0.369143993
     0.420567989         0.449376971         0.240775004
     0.898995936         0.857451022         0.466488004
     0.601004004         0.357450992         0.466488004
     0.250169992         0.374691993         0.630855978
     0.398995996         0.642549038         0.533511996
     0.079861000         0.449791014         0.238993004
